proyfinal/src/viki/013/experimentInOfficeAgust.take6.output/e0fd5c65-d2dd-4795-a840-d8372418eb9c.als.dat
{'cnf.clauses': '118081',
 'cnf.totvars': '69608',
 'conflict literals': '7',
 'conflicts': '6',
 'decisions': '655',
 'memused.mb': '16.69',
 'outcome': 'UNSAT',
 'propagations': '21578',
 'restarts': '1',
 'solver.msecs': 32,
 'task.msecs': 115}
