proyfinal/src/viki/013/experimentInOfficeAgust.take6.output/e0fd5c65-d2dd-4795-a840-d8372418eb9c.als.out
Reading from standard input... Use '--help' for help.
============================[ Problem Statistics ]=============================
|                                                                             |
|  Number of variables:         69608                                         |
|  Number of clauses:          118081                                         |
|  Parse time:                   0.02 s                                       |
|                                                                             |
============================[ Search Statistics ]==============================
| Conflicts |          ORIGINAL         |          LEARNT          | Progress |
|           |    Vars  Clauses Literals |    Limit  Clauses Lit/Cl |          |
===============================================================================
===============================================================================
restarts              : 1
conflicts             : 6              (185 /sec)
decisions             : 655            (0.00 % random) (20192 /sec)
propagations          : 21578          (665207 /sec)
conflict literals     : 7              (0.00 % deleted)
Memory used           : 16.69 MB
CPU time              : 0.032438 s

UNSATISFIABLE
